k = 40;
b = 20;
AtomicConstraints =  [|
9, 17|
	10, 17|
	10, 18|
	11, 1|
	11, 17|
	11, 18|
	12, 1|
	12, 2|
	12, 17|
	12, 18|
	13, 1|
	13, 2|
	13, 3|
	13, 18|
	14, 1|
	14, 2|
	14, 3|
	14, 4|
	15, 2|
	15, 3|
	15, 4|
	15, 5|
	16, 3|
	16, 4|
	16, 5|
	22, 19|
	31, 19|
	32, 19|
	23, 21|
	23, 19|
	23, 22|
	23, 31|
	23, 32|
	23, 33|
	23, 34|
	24, 21|
	24, 19|
	24, 22|
	24, 31|
	24, 32|
	24, 33|
	24, 34|
	20, 19|
	20, 22|
	20, 31|
	20, 32|
	20, 34|
	39, 19|
	39, 31|
	39, 32|
	33, 21|
	33, 19|
	33, 22|
	33, 31|
	33, 32|
	34, 21|
	34, 19|
	34, 22|
	34, 31|
	34, 32|
	25, 21|
	25, 19|
	25, 22|
	25, 31|
	25, 32|
	25, 23|
	25, 24|
	25, 20|
	25, 39|
	25, 33|
	25, 34|
	25, 35|
	25, 36|
	40, 19|
	40, 31|
	40, 32|
	40, 24|
	40, 20|
	40, 39|
	40, 34|
	40, 36|
	26, 19|
	26, 31|
	26, 32|
	26, 20|
	26, 39|
	27, 19|
	27, 32|
	27, 39|
	35, 21|
	35, 19|
	35, 22|
	35, 31|
	35, 32|
	35, 23|
	35, 24|
	35, 20|
	35, 39|
	35, 33|
	35, 34|
	36, 19|
	36, 22|
	36, 31|
	36, 32|
	36, 23|
	36, 24|
	36, 20|
	36, 39|
	36, 33|
	36, 34|
	37, 21|
	37, 19|
	37, 22|
	37, 31|
	37, 32|
	37, 23|
	37, 24|
	37, 20|
	37, 39|
	37, 33|
	37, 34|
	37, 25|
	37, 40|
	37, 26|
	37, 27|
	37, 35|
	37, 36|
	37, 29|
	37, 30|
	38, 19|
	38, 22|
	38, 31|
	38, 32|
	38, 24|
	38, 20|
	38, 39|
	38, 34|
	38, 25|
	38, 40|
	38, 26|
	38, 27|
	38, 35|
	38, 36|
	38, 29|
	38, 30|
	28, 19|
	28, 31|
	28, 32|
	28, 20|
	28, 39|
	28, 40|
	28, 26|
	28, 27|
	28, 36|
	28, 30|
	29, 21|
	29, 19|
	29, 22|
	29, 31|
	29, 32|
	29, 23|
	29, 24|
	29, 20|
	29, 39|
	29, 33|
	29, 34|
	29, 25|
	29, 40|
	29, 26|
	29, 27|
	29, 35|
	29, 36|
	30, 19|
	30, 22|
	30, 31|
	30, 32|
	30, 24|
	30, 20|
	30, 39|
	30, 34|
	30, 25|
	30, 40|
	30, 26|
	30, 27|
	30, 35|
	30, 36|];
DisjunctiveConstraints =  [|1, 18, 1, 2|
	2, 1, 2, 3|
	3, 2, 3, 4|
	4, 3, 4, 5|
	7, 6, 7, 8|
	8, 7, 8, 9|
	9, 8, 9, 10|
	10, 9, 10, 11|
	11, 10, 11, 12|
	12, 11, 12, 13|
	13, 12, 13, 14|
	14, 13, 14, 15|
	15, 14, 15, 16|
	18, 17, 18, 1|
	22, 21, 22, 31|
	31, 22, 31, 32|
	23, 1, 23, 21|
	23, 2, 23, 22|
	24, 2, 24, 22|
	24, 21, 1, 24|
	24, 23, 24, 20|
	20, 22, 2, 20|
	20, 31, 20, 11|
	20, 24, 20, 39|
	39, 22, 2, 39|
	39, 31, 39, 11|
	39, 32, 39, 12|
	33, 1, 33, 21|
	33, 2, 33, 22|
	34, 2, 34, 22|
	34, 21, 1, 34|
	25, 2, 25, 22|
	25, 3, 25, 23|
	25, 4, 25, 24|
	25, 13, 25, 33|
	25, 14, 25, 34|
	40, 21, 1, 40|
	40, 31, 40, 11|
	40, 23, 3, 40|
	40, 24, 4, 40|
	40, 33, 13, 40|
	40, 34, 14, 40|
	40, 25, 40, 26|
	26, 19, 26, 39|
	26, 21, 1, 26|
	26, 22, 2, 26|
	26, 32, 26, 12|
	26, 24, 4, 26|
	26, 20, 40, 26|
	26, 34, 14, 26|
	26, 40, 26, 27|
	27, 22, 2, 27|
	27, 39, 19, 27|
	35, 2, 35, 22|
	35, 3, 35, 23|
	35, 4, 35, 24|
	35, 13, 35, 33|
	35, 14, 35, 34|
	36, 4, 36, 24|
	36, 14, 36, 34|
	36, 23, 3, 36|
	36, 33, 13, 36|
	37, 2, 37, 22|
	37, 4, 37, 24|
	37, 5, 37, 25|
	37, 14, 37, 34|
	37, 15, 37, 35|
	37, 16, 37, 36|
	38, 16, 38, 36|
	38, 31, 38, 11|
	38, 25, 5, 38|
	38, 35, 15, 38|
	38, 37, 38, 28|
	28, 31, 28, 11|
	28, 32, 28, 12|
	28, 20, 28, 40|
	28, 25, 5, 28|
	28, 26, 28, 6|
	28, 35, 15, 28|
	28, 36, 16, 28|
	29, 2, 29, 22|
	29, 4, 29, 24|
	29, 5, 29, 25|
	29, 14, 29, 34|
	29, 15, 29, 35|
	29, 16, 29, 36|
	30, 16, 30, 36|
	30, 31, 30, 11|
	30, 25, 5, 30|
	30, 35, 15, 30|];
SoftAtomicConstraints =  [|
18, 1|
1, 2|
2, 3|
3, 4|
4, 5|
6, 7|
7, 8|
8, 9|
9, 10|
10, 11|
11, 12|
12, 13|
13, 14|
14, 15|
15, 16|
17, 18|
24, 20|
21, 22|
23, 24|
40, 26|
26, 27|
38, 28|
29, 30|
22, 31|
31, 32|
33, 34|
35, 36|
37, 38|
20, 39|
25, 40|];
DirectSuccessors =  [];
